--Link1--
%nprocshared=16
%chk=/home/sortiz/AA_resp/AA_resp.chk
%mem=2GB
#HF/6-31G* SCF=tight Test Pop=MK iop(6/33=2) iop(6/42=6) opt
# iop(6/50=1)

Amber RESP parametrization of ligand AA

-1   1
    C   -9.5500000000       23.6260000000        2.8680000000     
    O   -9.8960000000       24.8330000000        2.9380000000     
    O   -9.0710000000       23.0130000000        3.8620000000     
    C   -9.6790000000       22.8990000000        1.5440000000     
    H   -9.9490000000       23.6370000000        0.7630000000     
    H  -10.4900000000       22.1490000000        1.6260000000     
    C   -8.3680000000       22.1730000000        1.1640000000     
    H   -8.5340000000       21.5810000000        0.2340000000     
    H   -8.1020000000       21.4670000000        1.9830000000     
    C   -7.1960000000       23.1430000000        0.9230000000     
    H   -7.5930000000       24.0630000000        0.4410000000     
    H   -6.4970000000       22.6680000000        0.1960000000     
    C   -6.4730000000       23.4930000000        2.2020000000     
    H   -7.0520000000       23.3620000000        3.1330000000     
    C   -5.2140000000       23.9550000000        2.2790000000     
    H   -4.7940000000       24.2020000000        3.2640000000     
    C   -4.2740000000       24.2150000000        1.1340000000     
    H   -4.3960000000       25.2600000000        0.8270000000     
    H   -4.5950000000       23.5990000000        0.2790000000     
    C   -2.8430000000       23.8880000000        1.4830000000     
    H   -2.6800000000       22.8550000000        1.7980000000     
    C   -1.7550000000       24.6710000000        1.4450000000     
    H   -0.8060000000       24.2360000000        1.7650000000     
    C   -1.6680000000       26.1300000000        1.0480000000     
    H   -0.6660000000       26.5170000000        1.2700000000     
    H   -2.3810000000       26.7100000000        1.6520000000     
    C   -1.9540000000       26.3330000000       -0.4230000000     
    H   -2.8020000000       26.9840000000       -0.6380000000     
    C   -1.2740000000       25.8290000000       -1.4580000000     
    H   -1.6180000000       26.0790000000       -2.4630000000     
    C   -0.0650000000       24.9120000000       -1.3970000000     
    H    0.1100000000       24.6250000000       -0.3470000000     
    H    0.8430000000       25.4400000000       -1.7140000000     
    C   -0.2650000000       23.6510000000       -2.2030000000     
    H   -0.8000000000       22.8600000000       -1.6780000000     
    C    0.1510000000       23.3970000000       -3.4520000000     
    H   -0.0690000000       22.4000000000       -3.8440000000     
    C    0.9290000000       24.3070000000       -4.3680000000     
    H    0.3110000000       24.6060000000       -5.2300000000     
    H    1.8110000000       23.8000000000       -4.7770000000     
    C    1.3960000000       25.6060000000       -3.7140000000     
    H    2.2530000000       25.3930000000       -3.0420000000     
    H    0.5630000000       26.0120000000       -3.1040000000     
    C    1.8180000000       26.6470000000       -4.7520000000     
    H    2.4670000000       26.1550000000       -5.5130000000     
    H    2.4270000000       27.4320000000       -4.2480000000     
    C    0.6400000000       27.3060000000       -5.4730000000     
    H   -0.1430000000       27.5810000000       -4.7290000000     
    H    0.1930000000       26.5650000000       -6.1750000000     
    C    1.0650000000       28.5520000000       -6.2500000000     
    H    0.2120000000       28.9900000000       -6.8060000000     
    H    1.8670000000       28.3010000000       -6.9760000000     
    H    1.4630000000       29.3220000000       -5.5540000000     

AA_resp.gesp

AA_resp.gesp


