--Link1--
%nprocshared=16
%chk=/home/sortiz/5-HpETE_resp/5-HpETE_resp.chk
%mem=2GB
#HF/6-31G* SCF=tight Test Pop=MK iop(6/33=2) iop(6/42=6) opt
# iop(6/50=1)

Amber RESP parametrization of ligand 5-HpETE

-1   1
    C    9.8160000000       -2.1130000000        0.4680000000     
    H    9.7260000000       -2.9710000000        1.1450000000     
    H   10.0300000000       -1.2300000000        1.0840000000     
    H   10.6840000000       -2.2870000000       -0.1770000000     
    C    8.5360000000       -1.9190000000       -0.3520000000     
    H    8.3680000000       -2.8030000000       -0.9820000000     
    H    8.6690000000       -1.0750000000       -1.0440000000     
    C    7.2930000000       -1.6710000000        0.5130000000     
    H    7.4630000000       -0.7860000000        1.1450000000     
    H    7.1600000000       -2.5160000000        1.2060000000     
    C    6.0090000000       -1.4760000000       -0.3010000000     
    H    5.8370000000       -2.3610000000       -0.9310000000     
    H    6.1340000000       -0.6310000000       -0.9940000000     
    C    4.7640000000       -1.2270000000        0.5730000000     
    H    4.9260000000       -0.3330000000        1.1870000000     
    H    4.6600000000       -2.0680000000        1.2770000000     
    C    3.5000000000       -1.1080000000       -0.2370000000     
    H    3.2560000000       -1.9930000000       -0.8280000000     
    C    2.6610000000       -0.0670000000       -0.3230000000     
    H    1.7960000000       -0.1650000000       -0.9770000000     
    C    2.7610000000        1.2700000000        0.3770000000     
    H    3.6100000000        1.2770000000        1.0720000000     
    H    1.8610000000        1.4210000000        0.9860000000     
    C    2.9220000000        2.4000000000       -0.6150000000     
    H    3.8260000000        2.3370000000       -1.2220000000     
    C    2.0920000000        3.4240000000       -0.8440000000     
    H    2.3760000000        4.1360000000       -1.6220000000     
    C    0.7740000000        3.7310000000       -0.1690000000     
    H    0.8690000000        4.7030000000        0.3460000000     
    H    0.5480000000        2.9970000000        0.6070000000     
    C   -0.3550000000        3.8250000000       -1.1690000000     
    H   -0.1880000000        4.5320000000       -1.9830000000     
    C   -1.5120000000        3.1360000000       -1.1680000000     
    H   -2.2130000000        3.3330000000       -1.9800000000     
    C   -1.9560000000        2.1430000000       -0.2000000000     
    H   -1.2890000000        1.8940000000        0.6250000000     
    H   -3.9320000000        2.8190000000        1.7740000000     
    C   -3.1400000000        1.5060000000       -0.2730000000     
    H   -3.8300000000        1.7400000000       -1.0860000000     
    C   -3.6340000000        0.4850000000        0.7180000000     
    H   -2.8170000000        0.1780000000        1.3870000000     
    C   -4.2640000000       -0.7280000000        0.0280000000     
    H   -5.1070000000       -0.4310000000       -0.6050000000     
    H   -3.4880000000       -1.1410000000       -0.6360000000     
    C   -4.7790000000       -1.8250000000        0.9680000000     
    H   -4.0020000000       -2.0710000000        1.7130000000     
    H   -5.6420000000       -1.4330000000        1.5170000000     
    C   -5.2040000000       -3.0840000000        0.2000000000     
    H   -4.3490000000       -3.4900000000       -0.3640000000     
    H   -5.4840000000       -3.8740000000        0.9130000000     
    C   -6.4100000000       -2.9100000000       -0.8050000000     
    O   -6.9220000000       -1.7590000000       -0.8740000000     
    O   -6.7190000000       -3.9570000000       -1.4200000000     
    O   -4.6640000000        1.0850000000        1.5360000000     
    O   -4.0320000000        2.0730000000        2.3970000000     

5-HpETE_resp.gesp

5-HpETE_resp.gesp


